
List of user-set options:

                                    Name   Value                used
                           compl_inf_tol = 1                     yes
                         constr_viol_tol = 1                     yes
                            dual_inf_tol = 1000                  yes
                           linear_solver = ma97                  yes
                              ma86_small = 1e-30                  no
                                  ma86_u = 0.0001                 no
                              ma97_order = best                  yes
                              ma97_small = 1e-30                 yes
                            ma97_switch1 = at_start              yes
                            ma97_switch2 = od_hd_reuse           yes
                                  ma97_u = 1e-06                 yes
                               ma97_umax = 0.5                   yes
                                max_iter = 1000                  yes
                    max_refinement_steps = 20                    yes
                    min_refinement_steps = 5                     yes
                                 mu_init = 1e-06                 yes
           mu_superlinear_decrease_power = 1.25                  yes
                   nlp_scaling_min_value = 1e-08                 yes
                        option_file_name = Preset_Case:_635_NCP.opt  yes
                             output_file = ./tmp/Preset_Case:_635_NCP.output  yes
                      print_user_options = yes                   yes
        required_infeasibility_reduction = 1                      no
                                     tol = 1e-08                 yes
                   warm_start_bound_frac = 1e-20                 yes
                   warm_start_bound_push = 1e-20                 yes
                   warm_start_init_point = yes                   yes
              warm_start_mult_bound_push = 1e-20                 yes
                warm_start_mult_init_max = 1e+40                 yes
             warm_start_slack_bound_frac = 1e-20                 yes
             warm_start_slack_bound_push = 1e-20                 yes

******************************************************************************
This program contains Ipopt, a library for large-scale nonlinear optimization.
 Ipopt is released as open source code under the Eclipse Public License (EPL).
         For more information visit http://projects.coin-or.org/Ipopt
******************************************************************************

This is Ipopt version 3.12.10, running with linear solver ma97.

Number of nonzeros in equality constraint Jacobian...:   117167
Number of nonzeros in inequality constraint Jacobian.:      213
Number of nonzeros in Lagrangian Hessian.............:    47513

Total number of variables............................:    29977
                     variables with only lower bounds:    11312
                variables with lower and upper bounds:    15135
                     variables with only upper bounds:        0
Total number of equality constraints.................:    29864
Total number of inequality constraints...............:       25
        inequality constraints with only lower bounds:        4
   inequality constraints with lower and upper bounds:        0
        inequality constraints with only upper bounds:       21

iter    objective    inf_pr   inf_du lg(mu)  ||d||  lg(rg) alpha_du alpha_pr  ls
   0 -1.0125401e-01 4.83e-01 2.00e+00  -6.0 0.00e+00    -  0.00e+00 0.00e+00   0
In iteration 0, 9 Slacks too small, adjusting variable bounds
   1 -1.0125401e-01 4.83e-01 1.13e+03  -6.0 1.07e+10    -  1.13e-13 3.68e-19h  1
   2 -1.0125423e-01 4.83e-01 1.13e+03  -6.0 1.24e+02    -  3.43e-03 5.81e-06f  1
   3 -1.0137904e-01 4.81e-01 1.13e+03  -6.0 1.21e+02    -  2.02e-02 3.85e-03h  1
   4 -1.0213315e-01 4.68e-01 1.10e+03  -6.0 1.21e+02    -  1.47e-02 2.58e-02h  1
   5r-1.0213315e-01 4.68e-01 1.00e+03  -0.3 0.00e+00    -  0.00e+00 3.12e-07R  2
   6r-1.0212812e-01 4.68e-01 4.67e+03  -0.3 4.18e+03    -  1.67e-06 2.14e-07f  1
   7 -1.0221334e-01 4.66e-01 1.45e+06  -6.0 9.26e+01    -  1.85e-02 3.90e-03h  1
   8 -1.0225863e-01 4.65e-01 6.20e+05  -6.0 9.01e+01    -  3.90e-03 2.14e-03h  1
   9 -1.0246974e-01 4.60e-01 6.13e+05  -6.0 2.01e+02    -  7.51e-03 1.11e-02h  1
iter    objective    inf_pr   inf_du lg(mu)  ||d||  lg(rg) alpha_du alpha_pr  ls
  10 -1.0258652e-01 4.57e-01 6.09e+05  -6.0 1.97e+02    -  1.78e-02 7.31e-03f  1
  11 -1.0383813e-01 4.36e-01 5.81e+05  -6.0 1.53e+02    -  4.52e-02 4.54e-02f  1
  12 -1.0546894e-01 3.73e-01 1.04e+06  -6.0 1.75e+02    -  3.91e-03 1.45e-01f  1
  13 -1.0576340e-01 3.46e-01 8.78e+05  -6.0 6.17e+01    -  8.25e-02 7.37e-02f  2
  14 -1.0586881e-01 3.35e-01 4.47e+05  -6.0 5.95e+01    -  7.60e-02 3.05e-02h  3
  15 -1.0595577e-01 3.26e-01 4.34e+05  -6.0 5.91e+01    -  4.47e-02 2.78e-02h  3
  16 -1.0603508e-01 3.17e-01 8.99e+05  -6.0 5.90e+01    -  1.62e-01 2.66e-02h  3
  17 -1.0615744e-01 3.04e-01 1.40e+06  -6.0 5.94e+01    -  1.17e-01 4.15e-02h  3
  18 -1.0623724e-01 2.96e-01 1.90e+06  -6.0 5.86e+01    -  1.06e-01 2.70e-02h  4
  19 -1.0631692e-01 2.88e-01 3.37e+06  -6.0 5.79e+01    -  2.58e-01 2.71e-02h  4
iter    objective    inf_pr   inf_du lg(mu)  ||d||  lg(rg) alpha_du alpha_pr  ls
  20 -1.0640373e-01 2.80e-01 4.78e+06  -6.0 5.66e+01    -  2.76e-01 2.83e-02h  4
  21 -1.0642485e-01 2.72e-01 5.25e+06  -6.0 5.50e+01    -  1.17e-01 2.61e-02h  4
  22 -1.0632467e-01 2.66e-01 6.57e+06  -6.0 5.60e+01    -  2.23e-01 2.36e-02h  4
  23 -1.0576634e-01 8.57e-01 5.25e+06  -6.0 9.66e+01    -  1.73e-01 1.86e-01w  1
  24 -1.0539125e-01 1.01e+00 4.82e+06  -6.0 7.01e+01    -  1.86e-01 1.49e-01w  1
  25 -1.0510758e-01 9.82e-01 7.23e+06  -6.0 6.34e+01    -  3.42e-01 5.77e-02w  1
  26 -1.0625488e-01 2.60e-01 7.68e+06  -6.0 1.07e+02    -  1.73e-01 2.32e-02h  3
  27 -1.0631912e-01 2.55e-01 9.03e+06  -6.0 1.13e+02    -  1.73e-01 1.90e-02h  4
  28 -1.0635392e-01 2.52e-01 9.47e+06  -6.0 1.47e+02    -  6.09e-02 1.11e-02h  4
  29 -1.0638795e-01 2.50e-01 1.07e+07  -6.0 1.58e+02    -  1.26e-01 8.92e-03h  4
iter    objective    inf_pr   inf_du lg(mu)  ||d||  lg(rg) alpha_du alpha_pr  ls
  30 -1.0646968e-01 2.46e-01 1.13e+07  -6.0 1.88e+02    -  7.49e-02 1.34e-02h  3
  31 -1.0663534e-01 2.56e-01 1.32e+07  -6.0 2.02e+02    -  2.08e-01 2.13e-02h  2
  32 -1.0756124e-01 3.83e-01 1.19e+07  -6.0 2.53e+02    -  1.03e-02 5.88e-02h  1
  33 -1.0767169e-01 3.85e-01 1.48e+07  -6.0 2.19e+02    -  2.62e-01 8.18e-03h  1
  34 -1.0824775e-01 4.16e-01 1.45e+07  -6.0 3.43e+02    -  2.38e-02 2.08e-02h  1
  35 -1.0825741e-01 4.18e-01 1.71e+07  -6.0 3.12e+02    -  2.97e-01 8.78e-03h  3
  36 -1.0866699e-01 5.24e-01 1.63e+07  -6.0 4.50e+02    -  1.41e-02 3.76e-02h  1
  37 -1.1009140e-01 1.56e+00 1.64e+07  -6.0 4.18e+02    -  3.67e-01 1.11e-01h  1
  38 -1.1257290e-01 2.32e+00 1.68e+08  -6.0 6.18e+02    -  1.46e-02 1.23e-01h  1
  39 -1.1193115e-01 2.29e+00 1.66e+08  -6.0 8.77e+02    -  1.91e-01 1.35e-02h  4
iter    objective    inf_pr   inf_du lg(mu)  ||d||  lg(rg) alpha_du alpha_pr  ls
  40 -1.1187385e-01 2.29e+00 1.65e+08  -6.0 2.97e+03    -  1.89e-02 2.57e-04h  8
  41 -1.1120814e-01 2.26e+00 1.72e+08  -6.0 8.38e+02    -  2.00e-01 1.36e-02h  4
  42 -1.1105172e-01 2.16e+00 1.63e+08  -6.0 4.16e+01  -4.0 9.22e-02 4.72e-02h  4
  43 -1.1096562e-01 2.14e+00 1.62e+08  -6.0 6.01e+01  -4.5 1.06e-01 1.31e-02h  6
  44 -1.1090404e-01 2.13e+00 1.61e+08  -6.0 4.55e+01  -4.1 2.92e-01 3.38e-03h  8
  45 -1.1089220e-01 2.13e+00 1.61e+08  -6.0 3.40e+01  -3.6 4.63e-03 8.20e-04h 10
  46 -1.1088262e-01 2.13e+00 1.62e+08  -6.0 3.00e+01  -3.2 3.09e-02 7.67e-04h 10
  47 -1.1088235e-01 2.13e+00 1.63e+08  -6.0 5.09e+01  -3.7 8.02e-02 4.00e-05h 10
  48 -1.0840288e-01 1.96e+00 1.01e+08  -6.0 2.94e+01  -3.3 1.46e-03 3.82e-01h  1
  49 -1.0840138e-01 1.96e+00 1.01e+08  -6.0 6.20e+01  -3.7 8.54e-02 1.04e-04h  1
iter    objective    inf_pr   inf_du lg(mu)  ||d||  lg(rg) alpha_du alpha_pr  ls
  50 -1.0694106e-01 1.60e+00 7.84e+07  -6.0 4.59e+01  -3.3 3.25e-02 2.24e-01h  1
  51 -1.0704642e-01 1.43e+00 6.97e+07  -6.0 1.62e+01  -2.9 1.97e-02 1.11e-01h  1
  52 -1.0792999e-01 1.19e+00 5.77e+07  -6.0 1.54e+01  -3.4 2.69e-04 1.71e-01h  1
  53 -1.0796219e-01 1.17e+00 5.70e+07  -6.0 1.35e+02  -3.8 1.21e-02 1.35e-02h  4
  54 -1.0801184e-01 1.08e+00 5.24e+07  -6.0 1.36e+01  -3.4 1.41e-03 7.98e-02h  1
  55 -1.0664314e-01 8.88e-01 4.33e+07  -6.0 1.82e+01  -3.9 6.76e-02 1.74e-01h  1
  56 -1.1130008e-01 9.52e-01 5.71e+07  -6.0 2.52e+01  -4.4 1.87e-03 7.14e-01h  1
  57 -1.1244899e-01 8.74e-01 3.96e+07  -6.0 5.63e+01  -4.8 1.10e-01 8.22e-02h  1
  58r-1.1244899e-01 8.74e-01 1.00e+03  -0.7 0.00e+00  -5.3 0.00e+00 5.40e-08R  2
  59r-1.1224532e-01 8.63e-01 1.82e+03  -0.7 4.40e+03    -  6.13e-06 1.23e-05f  1
iter    objective    inf_pr   inf_du lg(mu)  ||d||  lg(rg) alpha_du alpha_pr  ls
  60 -1.1233017e-01 4.50e-01 3.97e+06  -6.0 2.68e+00    -  4.40e-01 4.79e-01h  1
  61 -1.1241808e-01 1.75e-01 1.09e+07  -6.0 1.30e+00    -  4.79e-01 6.13e-01h  1
  62 -1.1258194e-01 2.77e-02 1.72e+06  -6.0 4.95e-01    -  1.97e-01 8.43e-01h  1
  63 -1.1281833e-01 1.23e-04 1.01e+01  -6.0 5.35e-01    -  9.24e-01 1.00e+00h  1
  64 -1.1590565e-01 1.63e-02 1.29e+01  -6.0 7.36e+00    -  1.57e-01 1.00e+00h  1
  65 -1.1975267e-01 3.66e-02 8.95e+00  -6.0 1.02e+01    -  3.06e-01 1.00e+00h  1
  66 -1.2562997e-01 1.12e-01 1.03e+01  -6.0 1.56e+01    -  1.36e-01 1.00e+00h  1
  67 -1.3081830e-01 4.33e-02 7.66e+00  -6.0 1.25e+01    -  4.25e-01 1.00e+00h  1
  68 -1.3571432e-01 1.15e-01 8.87e+00  -6.0 1.23e+01    -  3.35e-01 1.00e+00h  1
  69 -1.3597408e-01 1.00e-01 8.47e+00  -6.0 1.87e+00  -4.0 6.66e-02 1.32e-01h  1
iter    objective    inf_pr   inf_du lg(mu)  ||d||  lg(rg) alpha_du alpha_pr  ls
  70 -1.3635849e-01 4.62e-02 1.10e+01  -6.0 1.04e+00  -3.6 1.93e-01 5.44e-01h  1
  71 -1.3640036e-01 4.59e-02 1.13e+01  -6.0 1.71e+01    -  5.47e-06 7.76e-03f  1
  72 -1.3638368e-01 4.58e-02 2.87e+01  -6.0 7.13e+02    -  3.74e-02 1.33e-03h  6
  73 -1.3923132e-01 8.70e-02 1.07e+01  -6.0 1.64e+01    -  4.72e-01 3.99e-01h  1
  74 -1.4045727e-01 9.13e-02 2.32e+01  -6.0 2.15e+01    -  4.47e-01 1.24e-01h  1
  75 -1.4917564e-01 9.78e-01 1.57e+01  -6.0 3.77e+01    -  4.21e-01 6.34e-01f  1
  76 -1.5517541e-01 1.93e+00 2.09e+01  -6.0 5.66e+01    -  5.07e-01 4.29e-01h  1
  77 -1.5545185e-01 1.90e+00 2.06e+01  -6.0 9.49e+01    -  4.85e-01 1.64e-02h  1
  78 -1.5545123e-01 1.84e+00 2.00e+01  -6.0 2.20e+00  -4.0 6.97e-02 3.05e-02h  1
  79 -1.5583001e-01 1.34e-01 1.79e+01  -6.0 3.34e+00  -4.5 7.93e-02 1.00e+00h  1
iter    objective    inf_pr   inf_du lg(mu)  ||d||  lg(rg) alpha_du alpha_pr  ls
  80 -1.5599013e-01 8.48e-02 1.05e+01  -6.0 6.53e-01  -4.1 9.98e-01 3.80e-01h  1
  81 -1.5614522e-01 6.69e-02 8.33e+00  -6.0 1.82e+00  -4.6 2.92e-01 2.10e-01f  1
  82 -1.5773028e-01 7.87e-02 9.41e+00  -6.0 4.12e+00  -5.0 1.00e+00 7.53e-01f  1
  83 -1.5957608e-01 4.28e-01 7.14e+00  -6.0 8.34e+00  -5.5 4.36e-01 7.70e-01h  1
  84 -1.6097305e-01 8.01e-01 9.68e+00  -6.0 2.95e+01  -6.0 8.92e-01 2.87e-01h  1
  85 -1.6128035e-01 7.90e-01 1.08e+01  -6.0 2.93e+01  -6.5 7.73e-01 1.19e-01h  1
  86 -1.6238997e-01 2.00e+00 1.13e+01  -6.0 4.50e+01  -6.9 5.95e-01 2.52e-01h  1
  87 -1.6257152e-01 1.93e+00 2.99e+01  -6.0 9.16e+01  -7.4 8.91e-01 4.39e-02h  1
  88 -1.6380208e-01 4.87e+00 5.75e+01  -6.0 5.06e+02  -7.9 3.90e-01 1.51e-01h  1
  89 -1.6782940e-01 3.91e+00 3.03e+01  -6.0 8.76e+02  -8.4 4.04e-01 3.35e-01h  1
iter    objective    inf_pr   inf_du lg(mu)  ||d||  lg(rg) alpha_du alpha_pr  ls
  90 -1.6986456e-01 5.82e+00 2.03e+01  -6.0 3.14e+02  -8.0 1.00e+00 4.24e-01h  1
  91 -1.7200322e-01 7.13e+00 1.79e+01  -6.0 1.19e+03  -8.4 6.09e-01 1.63e-01h  1
  92 -1.7367406e-01 8.67e+00 1.34e+02  -6.0 3.87e+02  -8.0 1.00e+00 3.22e-01h  1
  93 -1.7453837e-01 8.11e+00 5.48e+02  -6.0 1.09e+03  -8.5 8.23e-01 7.06e-02h  1
  94 -1.7637545e-01 4.96e+00 2.43e+02  -6.0 3.65e+02  -8.1 8.17e-01 3.88e-01h  1
  95 -1.7887872e-01 4.12e+00 6.44e+02  -6.0 1.06e+03  -8.5 6.07e-01 2.09e-01h  1
  96 -1.8188190e-01 5.02e+00 4.37e+02  -6.0 1.22e+04  -9.0 1.74e-03 3.53e-02h  1
  97 -1.8705564e-01 2.80e+00 2.26e+02  -6.0 9.81e+02  -8.6 1.52e-01 4.08e-01h  1
  98 -1.8706079e-01 2.73e+00 2.61e+02  -6.0 1.69e+02  -7.3 3.29e-02 2.54e-02h  1
  99 -1.8822917e-01 2.35e+00 2.73e+02  -6.0 1.08e+02  -7.7 3.84e-01 4.87e-01h  1
iter    objective    inf_pr   inf_du lg(mu)  ||d||  lg(rg) alpha_du alpha_pr  ls
 100 -1.8942548e-01 1.77e+00 2.03e+03  -6.0 2.28e+02  -8.2 6.79e-01 3.29e-01h  1
 101 -1.9114990e-01 2.84e+00 8.22e+03  -6.0 7.89e+02  -8.7 7.94e-01 2.18e-01h  1
 102 -1.9229607e-01 1.32e+01 1.01e+04  -6.0 6.91e+03  -9.2 1.65e-01 4.82e-02h  1
 103 -1.9480641e-01 1.13e+01 8.14e+03  -6.0 3.00e+03  -9.6 1.15e-01 1.52e-01h  1
 104 -1.9689189e-01 1.22e+01 6.18e+03  -6.0 6.15e+03 -10.1 1.82e-02 1.19e-01h  1
 105 -1.9727372e-01 1.37e+01 1.02e+04  -6.0 1.05e+04  -9.7 1.71e-01 3.07e-02h  1
 106 -1.9957485e-01 1.16e+01 2.53e+03  -6.0 1.89e+03  -9.3 2.45e-02 2.46e-01h  1
 107 -2.0106024e-01 1.63e+01 7.03e+02  -6.0 6.88e+03  -9.7 3.08e-02 8.06e-02h  1
 108 -2.0219909e-01 1.52e+01 2.68e+03  -6.0 5.66e+03 -10.2 1.89e-02 6.75e-02h  1
 109 -2.0389875e-01 1.49e+01 2.80e+03  -6.0 1.26e+04  -9.8 4.28e-02 4.46e-02h  1
iter    objective    inf_pr   inf_du lg(mu)  ||d||  lg(rg) alpha_du alpha_pr  ls
 110 -2.0497901e-01 1.41e+01 6.58e+03  -6.0 3.34e+03  -9.4 3.92e-02 8.30e-02h  1
 111 -2.0622706e-01 1.64e+01 8.95e+03  -6.0 9.89e+03  -9.8 1.75e-02 3.48e-02h  1
 112 -2.0669746e-01 1.61e+01 4.88e+03  -6.0 1.04e+04 -10.3 3.98e-02 1.75e-02h  1
 113 -2.0697812e-01 1.51e+01 1.16e+04  -6.0 2.17e+03  -9.0 3.38e-03 6.14e-02h  1
 114 -2.0737366e-01 1.46e+01 3.00e+04  -6.0 2.22e+03  -9.5 2.68e-01 3.72e-02h  1
 115 -2.0757490e-01 1.38e+01 2.33e+04  -6.0 9.32e+02  -8.1 1.39e-02 5.28e-02h  1
 116 -2.0774470e-01 1.32e+01 4.48e+04  -6.0 7.14e+02  -7.7 1.42e-03 4.69e-02h  1
 117 -2.0789560e-01 1.22e+01 3.97e+04  -6.0 2.98e+02  -7.3 1.32e-02 7.42e-02h  1
 118 -2.0799794e-01 1.16e+01 4.21e+04  -6.0 3.47e+02  -6.9 4.48e-02 4.93e-02h  1
 119 -2.0816444e-01 8.27e+00 2.71e+04  -6.0 4.74e+01  -7.3 1.44e-01 2.85e-01h  1
iter    objective    inf_pr   inf_du lg(mu)  ||d||  lg(rg) alpha_du alpha_pr  ls
 120 -2.0819331e-01 7.94e+00 2.60e+04  -6.0 1.13e+02  -7.8 7.29e-02 4.06e-02h  1
 121 -2.0898017e-01 2.74e+00 9.86e+03  -6.0 1.81e+02  -8.3 4.55e-01 6.55e-01h  1
 122 -2.0953544e-01 1.75e+00 6.31e+03  -6.0 4.59e+02  -8.8 6.04e-01 3.63e-01h  1
 123 -2.1197485e-01 7.48e+00 2.17e+03  -6.0 1.01e+03  -9.2 3.16e-01 6.57e-01h  1
 124 -2.1212244e-01 7.38e+00 2.12e+03  -6.0 3.36e+03  -9.7 1.60e-01 2.58e-02h  1
 125 -2.1251348e-01 7.69e+00 2.04e+03  -6.0 5.57e+03 -10.2 7.70e-02 3.43e-02h  1
 126 -2.1283385e-01 7.46e+00 1.96e+03  -6.0 3.71e+03  -9.8 3.41e-03 3.94e-02h  1
 127 -2.1395092e-01 1.17e+01 1.78e+03  -6.0 8.45e+03 -10.3 1.47e-02 9.34e-02h  1
 128 -2.1389140e-01 1.13e+01 1.73e+03  -6.0 7.53e+03  -8.9 1.93e-02 2.69e-02h  1
 129 -2.1434636e-01 1.05e+01 1.54e+03  -6.0 1.83e+03  -9.4 4.98e-02 1.10e-01f  1
iter    objective    inf_pr   inf_du lg(mu)  ||d||  lg(rg) alpha_du alpha_pr  ls
 130 -2.1456195e-01 9.51e+00 1.62e+03  -6.0 1.28e+03  -9.0 4.88e-03 1.07e-01h  1
 131 -2.1457398e-01 9.22e+00 1.55e+03  -6.0 5.27e+03  -9.5 1.66e-02 3.31e-02f  1
 132 -2.1476166e-01 9.05e+00 1.51e+03  -6.0 4.44e+03  -9.9 3.08e-02 2.93e-02f  1
 133 -2.1479784e-01 8.95e+00 1.66e+03  -6.0 1.44e+03  -9.5 2.96e-01 1.21e-02h  1
 134 -2.1560847e-01 8.70e+00 1.61e+03  -6.0 1.03e+04 -10.0 1.92e-01 1.04e-01h  1
 135 -2.1560406e-01 8.70e+00 1.55e+03  -6.0 6.39e+04 -10.5 9.21e-05 1.07e-03h  2
 136 -2.1580462e-01 7.90e+00 1.84e+03  -6.0 9.77e+02  -9.1 2.75e-02 1.12e-01h  1
 137 -2.1602772e-01 8.81e+00 3.50e+03  -6.0 4.80e+01  -7.8 4.82e-02 6.70e-01h  1
 138 -2.1606780e-01 6.88e+00 2.39e+03  -6.0 2.48e+02  -8.3 1.13e-01 3.14e-01h  1
 139 -2.1660835e-01 1.86e+00 5.52e+02  -6.0 3.13e+02  -8.8 6.36e-01 7.64e-01h  1
iter    objective    inf_pr   inf_du lg(mu)  ||d||  lg(rg) alpha_du alpha_pr  ls
 140 -2.1695790e-01 1.61e+00 4.78e+02  -6.0 1.53e+03  -9.2 5.04e-01 1.51e-01h  1
 141 -2.1714458e-01 1.68e+00 4.78e+02  -6.0 2.68e+03  -9.7 4.66e-01 4.37e-02h  1
 142 -2.1762136e-01 2.60e+00 4.39e+02  -6.0 3.75e+03 -10.2 2.21e-01 1.04e-01h  1
 143 -2.1788247e-01 3.33e+00 4.29e+02  -6.0 5.24e+03 -10.7 5.53e-01 5.73e-02h  1
 144 -2.1891469e-01 7.40e+00 2.72e+02  -6.0 1.75e+03 -10.2 4.49e-01 3.68e-01h  1
 145 -2.1956932e-01 2.09e+01 1.92e+02  -6.0 4.32e+03 -10.7 1.52e-01 2.74e-01h  1
 146 -2.2088644e-01 3.17e+01 1.21e+02  -6.0 3.56e+03 -10.3 4.51e-01 3.77e-01h  1
 147 -2.2162076e-01 3.85e+01 7.40e+03  -6.0 4.26e+03  -9.0 1.50e-02 2.57e-01h  1
 148 -2.2201585e-01 2.76e+01 4.25e+03  -6.0 1.74e+03  -8.5 1.30e-02 3.41e-01h  1
 149 -2.2223523e-01 1.57e+01 2.12e+03  -6.0 4.28e+02  -9.0 1.29e-01 4.37e-01h  1
iter    objective    inf_pr   inf_du lg(mu)  ||d||  lg(rg) alpha_du alpha_pr  ls
 150 -2.2228629e-01 8.84e+00 1.21e+03  -6.0 1.90e+02  -8.6 4.67e-01 4.40e-01h  1
 151 -2.2275676e-01 4.89e+01 2.51e+02  -6.0 4.06e+02  -9.1 1.00e+00 7.94e-01h  1
 152 -2.2293339e-01 3.49e+01 1.94e+02  -6.0 1.11e+03  -9.5 8.95e-01 3.15e-01h  1
 153 -2.2330454e-01 2.48e+01 1.31e+02  -6.0 2.73e+03 -10.0 4.03e-01 3.16e-01h  1
 154 -2.2342505e-01 2.32e+01 1.17e+02  -6.0 4.30e+03 -10.5 4.45e-01 6.83e-02h  1
 155 -2.2400061e-01 3.45e+01 9.27e+01  -6.0 1.40e+04 -11.0 2.06e-01 2.07e-01h  1
 156 -2.2437766e-01 3.22e+01 8.08e+01  -6.0 3.00e+03 -10.5 1.92e-01 1.19e-01h  1
 157 -2.2486353e-01 4.61e+01 7.08e+01  -6.0 2.13e+03 -10.1 5.80e-04 1.65e-01H  1
 158 -2.2496631e-01 4.16e+01 1.36e+03  -6.0 1.88e+03 -10.6 2.20e-01 1.06e-01h  1
 159 -2.2534437e-01 3.47e+01 1.11e+03  -6.0 2.20e+03 -10.2 2.10e-01 3.32e-01h  1
iter    objective    inf_pr   inf_du lg(mu)  ||d||  lg(rg) alpha_du alpha_pr  ls
 160 -2.2549548e-01 3.35e+01 1.05e+03  -6.0 6.05e+03 -10.6 5.19e-02 5.04e-02h  1
 161 -2.2549548e-01 3.35e+01 1.05e+03  -6.0 2.12e+03 -10.2 9.83e-06 3.14e-06h  2
 162 -2.2548176e-01 3.32e+01 1.17e+03  -6.0 1.35e+01  -2.4 9.95e-06 8.44e-03h  1
 163 -2.2547653e-01 3.31e+01 1.10e+03  -6.0 1.34e+01  -2.9 9.02e-03 3.82e-03h  1
 164 -2.2543553e-01 3.17e+01 1.35e+03  -6.0 1.33e+01  -3.3 1.45e-02 4.22e-02h  1
 165 -2.2535471e-01 2.84e+01 1.45e+03  -6.0 1.26e+01  -3.8 7.78e-02 1.04e-01h  1
 166 -2.2517551e-01 2.01e+01 1.28e+03  -6.0 2.26e+01  -4.3 2.34e-01 2.93e-01h  1
 167 -2.2518227e-01 1.64e+01 8.22e+02  -6.0 1.35e+01  -4.8 6.42e-01 1.84e-01h  1
 168 -2.2518410e-01 1.25e+01 7.05e+02  -6.0 1.14e+01  -5.2 9.15e-01 2.39e-01h  1
 169 -2.2509505e-01 2.89e+00 3.61e+02  -6.0 8.70e+00  -5.7 1.00e+00 7.68e-01h  1
iter    objective    inf_pr   inf_du lg(mu)  ||d||  lg(rg) alpha_du alpha_pr  ls
 170 -2.2512786e-01 2.12e+00 2.64e+02  -6.0 4.41e+00  -6.2 7.98e-02 2.65e-01h  1
 171 -2.2514963e-01 1.97e+00 6.28e+02  -6.0 1.73e+01  -6.7 1.78e-02 7.33e-02h  1
 172 -2.2529307e-01 6.80e-01 9.50e+03  -6.0 9.68e+00  -7.1 1.33e-01 6.54e-01h  1
 173 -2.2529345e-01 5.91e-01 8.53e+03  -6.0 1.98e+00  -4.9 1.00e+00 1.31e-01h  1
 174 -2.2528613e-01 1.07e-03 3.24e+02  -6.0 8.24e-01  -5.4 1.00e+00 1.00e+00h  1
 175 -2.2533559e-01 1.74e-02 7.50e+01  -6.0 1.60e+00  -5.9 1.00e+00 1.00e+00h  1
 176 -2.2543193e-01 4.65e-02 1.08e+01  -6.0 5.02e+00  -6.3 1.00e+00 8.01e-01h  1
 177 -2.2567706e-01 4.69e-01 4.29e+02  -6.0 1.62e+01  -6.8 9.27e-01 1.00e+00f  1
 178 -2.2604126e-01 1.70e+00 8.09e+01  -6.0 3.73e+01  -7.3 1.00e+00 5.34e-01h  1
 179 -2.2612278e-01 7.89e-02 1.30e+01  -6.0 1.92e+01  -7.8 9.27e-01 9.49e-01h  1
iter    objective    inf_pr   inf_du lg(mu)  ||d||  lg(rg) alpha_du alpha_pr  ls
 180 -2.2630276e-01 4.53e-01 3.42e+01  -6.0 5.95e+01  -8.3 1.00e+00 1.00e+00f  1
 181 -2.2644315e-01 5.99e-01 1.33e+00  -6.0 1.76e+02  -8.7 1.00e+00 9.67e-01h  1
 182 -2.2655073e-01 7.50e-01 6.54e+00  -6.0 5.51e+02  -9.2 1.00e+00 3.87e-01h  1
 183 -2.2687438e-01 1.10e+01 8.92e-01  -6.0 8.76e+02  -9.7 1.00e+00 1.00e+00h  1
 184 -2.2691277e-01 3.77e-01 1.42e+00  -6.0 1.79e+02  -8.4 6.25e-01 1.00e+00h  1
 185 -2.2702990e-01 8.03e-01 4.30e-02  -6.0 2.62e+02  -8.8 1.00e+00 1.00e+00h  1
 186 -2.2712538e-01 1.07e+00 6.43e-01  -6.0 6.49e+02  -9.3 2.89e-01 3.29e-01h  1
 187 -2.2715670e-01 1.06e+00 9.88e-01  -6.0 1.20e+03  -9.8 3.34e-02 4.93e-02h  1
 188 -2.2715525e-01 1.04e+00 1.01e+00  -6.0 4.45e+02  -7.6 6.83e-03 1.22e-02h  1
Error in an AMPL evaluation. Run with "halt_on_ampl_error yes" to see details.
Warning: Cutting back alpha due to evaluation error
 189 -2.2715486e-01 1.04e+00 9.71e-01  -6.0 7.93e+02  -8.0 1.50e-05 1.64e-03f  2
iter    objective    inf_pr   inf_du lg(mu)  ||d||  lg(rg) alpha_du alpha_pr  ls
 190 -2.2715431e-01 1.02e+00 9.51e-01  -6.0 1.62e+01  -5.8 1.89e-02 1.84e-02h  1
 191 -2.2718354e-01 6.10e-03 9.68e-01  -6.0 5.52e-01  -6.3 9.41e-01 9.94e-01h  1
 192 -2.2718204e-01 4.01e-03 8.04e-01  -6.0 9.52e-01  -6.8 3.81e-01 3.42e-01f  1
 193 -2.2718573e-01 1.20e-04 8.20e-04  -6.0 2.85e+00  -7.2 1.00e+00 1.00e+00h  1
 194 -2.2718991e-01 9.43e-04 1.01e-03  -6.0 8.55e+00  -7.7 1.00e+00 1.00e+00h  1
 195 -2.2720087e-01 8.46e-03 7.39e-04  -6.0 2.55e+01  -8.2 1.00e+00 1.00e+00h  1
 196 -2.2722714e-01 7.53e-02 5.25e-03  -6.0 7.57e+01  -8.7 1.00e+00 1.00e+00h  1
 197 -2.2729753e-01 6.57e-01 4.47e-02  -6.0 2.20e+02  -9.1 1.00e+00 1.00e+00h  1
 198 -2.2748275e-01 5.44e+00 3.56e-01  -6.0 6.37e+02  -9.6 1.00e+00 1.00e+00h  1
 199 -2.2760014e-01 7.94e+00 2.43e+01  -6.0 1.88e+03 -10.1 1.00e+00 2.99e-01h  1
iter    objective    inf_pr   inf_du lg(mu)  ||d||  lg(rg) alpha_du alpha_pr  ls
 200 -2.2772336e-01 1.87e+01 4.13e+01  -6.0 1.30e+04 -10.6 1.34e-01 7.21e-02h  1
 201 -2.2777042e-01 1.73e+01 2.51e+02  -6.0 2.18e+03 -10.1 1.00e+00 1.12e-01h  1
 202 -2.2805231e-01 5.13e+01 1.71e+02  -6.0 5.30e+03 -10.6 3.49e-01 3.39e-01h  1
 203 -2.2802081e-01 5.12e+01 1.93e+02  -6.0 1.42e+04 -10.2 5.71e-03 2.04e-02h  2
 204 -2.2805594e-01 5.11e+01 2.67e+02  -6.0 1.58e+04 -10.7 4.09e-02 1.55e-02h  1
 205 -2.2808466e-01 4.78e+01 2.41e+02  -6.0 1.91e+03  -9.3 5.42e-02 6.68e-02h  1
 206 -2.2808034e-01 2.96e+01 1.86e+02  -6.0 1.54e+03  -9.8 7.33e-02 5.95e-01f  1
 207 -2.2805631e-01 1.86e+01 4.08e+02  -6.0 1.33e+03  -7.6 1.38e-01 3.73e-01h  1
 208 -2.2808088e-01 1.72e+01 1.27e+03  -6.0 2.05e+03  -6.3 6.10e-01 7.24e-02h  1
 209 -2.2825668e-01 4.42e+00 4.01e+02  -6.0 6.26e+02  -6.7 7.68e-01 9.69e-01h  1
iter    objective    inf_pr   inf_du lg(mu)  ||d||  lg(rg) alpha_du alpha_pr  ls
 210r-2.2825668e-01 4.42e+00 1.00e+03   0.6 0.00e+00  -7.2 0.00e+00 2.00e-07R  2
 211r-2.2822753e-01 4.42e+00 1.00e+03   0.6 6.06e+07    -  1.03e-07 6.57e-07f  1
 212r-2.2814618e-01 4.41e+00 2.92e+03   0.6 6.35e+04    -  3.70e-06 1.08e-06f  1
 213 -2.2816967e-01 3.58e+00 2.81e+05  -6.0 2.11e+02    -  4.00e-03 1.93e-01h  1
 214 -2.2819414e-01 2.52e+00 1.94e+05  -6.0 3.58e+00    -  1.93e-01 2.97e-01h  1
 215 -2.2821097e-01 1.72e+00 1.33e+05  -6.0 2.52e+00    -  6.86e-01 3.15e-01h  1
 216 -2.2824013e-01 3.42e-01 2.64e+04  -6.0 1.72e+00    -  8.78e-01 8.02e-01h  1
 217 -2.2825163e-01 6.37e-02 4.93e+03  -6.0 4.52e-01    -  6.52e-01 8.13e-01h  1
 218 -2.2830890e-01 1.06e-04 9.73e+00  -6.0 3.60e-01    -  8.82e-01 1.00e+00h  1
 219 -2.2856803e-01 3.06e-03 1.14e+01  -6.0 2.77e+01    -  4.43e-02 5.96e-02h  1
iter    objective    inf_pr   inf_du lg(mu)  ||d||  lg(rg) alpha_du alpha_pr  ls
 220 -2.2847635e-01 1.10e-03 8.09e+00  -6.0 1.12e+00    -  5.14e-01 8.04e-01h  1
 221 -2.2878374e-01 2.68e-03 2.29e+01  -6.0 3.24e+01  -5.0 7.30e-03 3.84e-02f  1
 222 -2.2930882e-01 1.88e-02 4.50e+01  -6.0 5.63e+00    -  2.09e-01 1.00e+00h  1
 223 -2.2939982e-01 1.67e-02 3.27e+01  -6.0 8.56e+00    -  4.49e-01 1.05e-01h  1
 224 -2.3018068e-01 2.88e-02 1.54e+01  -6.0 1.04e+01    -  8.65e-01 1.00e+00h  1
 225 -2.3047835e-01 3.43e-02 8.70e+01  -6.0 3.29e+01    -  4.93e-01 3.11e-01h  1
 226 -2.3112238e-01 1.48e-01 9.66e+00  -6.0 6.23e+01    -  6.20e-01 6.81e-01h  1
 227 -2.3162883e-01 1.94e-01 5.55e+02  -6.0 2.24e+02    -  8.49e-01 4.94e-01h  1
 228 -2.3187078e-01 1.53e-01 9.54e+02  -6.0 2.78e+00  -5.5 5.53e-01 2.14e-01h  1
 229 -2.3281029e-01 1.77e+00 1.06e+01  -6.0 3.17e+00  -5.9 1.00e+00 1.00e+00h  1
iter    objective    inf_pr   inf_du lg(mu)  ||d||  lg(rg) alpha_du alpha_pr  ls
 230 -2.3338795e-01 7.61e-01 1.15e+03  -6.0 1.03e+01  -6.4 7.26e-01 5.69e-01h  1
 231 -2.3455145e-01 1.35e+00 9.30e+01  -6.0 2.08e+01  -6.9 1.00e+00 1.00e+00h  1
 232 -2.3506711e-01 1.27e+00 2.52e+03  -6.0 2.53e+01  -7.4 3.57e-01 4.14e-01h  1
 233 -2.3545456e-01 8.75e-01 3.92e+04  -6.0 3.04e+01  -7.8 8.03e-01 3.22e-01h  1
 234 -2.3596243e-01 1.18e+00 1.53e+04  -6.0 6.44e+01  -7.4 3.11e-01 3.78e-01h  1
 235 -2.3599712e-01 1.17e+00 3.26e+06  -6.0 6.59e+02  -7.9 5.53e-04 1.28e-02h  1
 236 -2.3669703e-01 3.73e-01 3.90e+04  -6.0 1.04e+02  -8.4 9.27e-02 1.00e+00f  1
 237 -2.3674230e-01 3.39e-01 3.43e+04  -6.0 3.39e+02  -8.9 3.54e-01 1.25e-01h  1
 238 -2.3700154e-01 8.17e-01 2.62e+04  -6.0 1.03e+03  -9.3 4.17e-01 2.38e-01h  1
 239 -2.3736679e-01 1.66e+00 1.00e+04  -6.0 5.55e+02  -8.9 1.44e-02 6.11e-01h  1
iter    objective    inf_pr   inf_du lg(mu)  ||d||  lg(rg) alpha_du alpha_pr  ls
 240 -2.3756228e-01 1.62e+00 8.82e+03  -6.0 9.56e+02  -9.4 4.39e-01 1.28e-01h  1
 241 -2.3764079e-01 1.60e+00 8.68e+03  -6.0 1.59e+04  -9.9 3.51e-02 1.65e-02h  1
 242 -2.3789547e-01 1.08e+00 5.94e+03  -6.0 1.38e+02  -8.5 1.00e+00 3.25e-01h  1
 243 -2.3826419e-01 1.95e+00 1.45e+02  -6.0 2.26e+02  -9.0 2.69e-01 1.00e+00h  1
 244 -2.3839813e-01 7.57e-01 7.17e+01  -6.0 1.95e+00  -5.0 9.90e-01 6.12e-01h  1
 245 -2.3868042e-01 1.52e-01 1.56e+01  -6.0 4.45e+00  -5.4 1.99e-01 8.00e-01h  1
 246 -2.3887950e-01 1.23e-01 1.92e+01  -6.0 1.39e+01  -5.9 3.98e-01 1.88e-01h  1
 247 -2.3915276e-01 3.01e-01 1.50e+03  -6.0 1.00e+01  -6.4 1.00e+00 3.60e-01h  1
 248 -2.3944451e-01 1.67e-01 1.67e+03  -6.0 7.98e+00  -6.9 6.75e-01 4.28e-01h  1
 249 -2.4004590e-01 8.24e-02 2.41e+03  -6.0 1.14e+01  -7.4 1.00e+00 7.44e-01h  1
iter    objective    inf_pr   inf_du lg(mu)  ||d||  lg(rg) alpha_du alpha_pr  ls
 250 -2.4046490e-01 4.67e-02 3.60e+03  -6.0 3.63e+01  -7.8 4.84e-01 3.97e-01h  1
 251 -2.4177517e-01 1.82e-01 6.15e+02  -6.0 1.10e+02  -8.3 1.00e+00 1.00e+00h  1
 252 -2.4238866e-01 3.13e-01 2.45e+03  -6.0 3.86e+02  -8.8 2.21e-01 2.10e-01h  1
 253 -2.4274775e-01 2.88e-01 9.05e+04  -6.0 1.15e+03  -9.3 1.98e-01 7.08e-02h  1
 254 -2.4308694e-01 3.35e-01 9.40e+06  -6.0 1.33e+04  -8.8 2.68e-04 9.29e-03h  1
 255 -2.4351215e-01 3.74e-01 7.83e+06  -6.0 5.92e+02  -9.3 6.60e-02 1.65e-01h  1
 256 -2.4396898e-01 2.05e+00 6.78e+06  -6.0 2.94e+03  -9.8 1.35e-01 1.34e-01h  1
 257 -2.4411673e-01 1.87e+00 6.03e+06  -6.0 8.68e+02  -9.4 1.65e-01 1.11e-01h  1
 258 -2.4477078e-01 1.33e+01 4.78e+06  -6.0 4.76e+03  -9.8 5.15e-02 2.07e-01h  1
 259 -2.4505377e-01 4.50e+00 1.60e+06  -6.0 1.93e+01  -7.6 3.39e-01 6.64e-01h  1
iter    objective    inf_pr   inf_du lg(mu)  ||d||  lg(rg) alpha_du alpha_pr  ls
 260 -2.4599780e-01 6.65e-01 2.22e+05  -6.0 5.96e+01  -8.1 9.51e-01 8.56e-01h  1
 261 -2.4615730e-01 6.18e-01 2.06e+05  -6.0 2.21e+02  -8.6 9.19e-01 7.20e-02h  1
 262 -2.4682767e-01 7.18e-01 9.61e+04  -6.0 5.05e+02  -9.0 6.37e-01 5.33e-01h  1
 263 -2.4761489e-01 2.91e+00 5.96e+04  -6.0 1.17e+03  -9.5 4.44e-01 3.81e-01h  1
 264 -2.4776520e-01 3.46e+00 5.84e+04  -6.0 1.11e+04 -10.0 3.16e-02 2.00e-02h  1
 265 -2.4818241e-01 1.19e+00 1.78e+04  -6.0 2.35e+02  -8.7 5.21e-01 6.99e-01h  1
Error in an AMPL evaluation. Run with "halt_on_ampl_error yes" to see details.
Warning: Cutting back alpha due to evaluation error
 266 -2.4852381e-01 1.08e+00 1.07e+04  -6.0 4.63e+02  -9.1 1.00e+00 4.02e-01h  2
 267 -2.4904295e-01 3.31e+00 7.34e+03  -6.0 1.40e+03  -9.6 3.64e-01 3.14e-01h  1
 268 -2.4916795e-01 3.14e+00 6.92e+03  -6.0 7.51e+02  -9.2 3.69e-01 5.82e-02h  1
 269 -2.4950696e-01 4.32e+00 5.16e+03  -6.0 1.51e+03  -9.7 3.25e-01 2.54e-01h  1
iter    objective    inf_pr   inf_du lg(mu)  ||d||  lg(rg) alpha_du alpha_pr  ls
 270 -2.5055062e-01 8.01e+01 3.65e+03  -6.0 8.14e+03 -10.1 1.26e-01 2.93e-01h  1
 271 -2.5061116e-01 7.33e+01 3.33e+03  -6.0 1.89e+03  -9.7 1.53e-01 8.80e-02h  1
 272 -2.5074510e-01 6.12e+01 2.77e+03  -6.0 1.65e+03  -9.3 3.23e-02 1.68e-01h  1
 273 -2.5083730e-01 5.53e+01 2.51e+03  -6.0 2.29e+02  -8.0 1.77e-01 9.70e-02h  1
 274 -2.5095538e-01 4.77e+01 2.16e+03  -6.0 1.24e+02  -7.5 1.37e-01 1.38e-01h  1
 275 -2.5115074e-01 2.77e+01 1.25e+03  -6.0 7.39e+01  -8.0 4.96e-01 4.21e-01h  1
 276 -2.5136329e-01 1.78e+01 8.03e+02  -6.0 2.09e+02  -8.5 5.51e-01 3.60e-01h  1
 277 -2.5204149e-01 5.17e+00 8.26e+00  -6.0 5.70e+02  -9.0 1.00e+00 1.00e+00h  1
 278 -2.5278475e-01 1.22e+01 3.93e+02  -6.0 9.90e+02  -9.4 6.54e-01 8.72e-01h  1
 279 -2.5289798e-01 8.34e+00 2.27e+02  -6.0 6.42e+02  -9.9 3.10e-01 3.56e-01h  1
iter    objective    inf_pr   inf_du lg(mu)  ||d||  lg(rg) alpha_du alpha_pr  ls
 280 -2.5321825e-01 2.28e+01 3.39e+02  -6.0 2.87e+03 -10.4 3.84e-03 3.64e-01h  1
 281 -2.5321079e-01 1.64e+01 2.45e+02  -6.0 2.92e+03    -  2.66e-01 2.88e-01h  1
 282 -2.5371415e-01 2.84e+01 2.14e+02  -6.0 1.95e+03    -  5.16e-01 1.00e+00h  1
 283 -2.5371360e-01 1.99e+01 1.24e+02  -6.0 1.66e+03    -  4.22e-01 3.55e-01h  1
 284 -2.5359783e-01 2.94e+00 2.37e+01  -6.0 2.27e+02 -10.9 4.60e-01 8.56e-01h  1
 285 -2.5354454e-01 7.20e-01 2.83e+01  -6.0 2.06e+02  -9.6 2.62e-01 1.00e+00h  1
 286 -2.5357975e-01 5.71e-01 1.71e+01  -6.0 4.99e+01  -8.2 3.48e-01 2.07e-01h  1
 287 -2.5364081e-01 3.82e-02 8.94e+01  -6.0 5.78e+01  -8.7 3.81e-01 1.00e+00f  1
 288 -2.5370528e-01 3.90e-02 1.86e+01  -6.0 6.95e+00  -6.5 1.00e+00 7.05e-01h  1
 289 -2.5380337e-01 4.30e-02 2.08e+00  -6.0 5.57e+00  -6.9 1.00e+00 1.00e+00h  1
iter    objective    inf_pr   inf_du lg(mu)  ||d||  lg(rg) alpha_du alpha_pr  ls
 290 -2.5387653e-01 4.62e-02 7.33e+01  -6.0 1.09e+01  -7.4 3.75e-01 3.24e-01h  1
 291 -2.5405537e-01 1.18e-01 1.08e+01  -6.0 2.55e+01  -7.9 1.00e+00 1.00e+00h  1
 292 -2.5410684e-01 1.14e-02 2.31e+04  -6.0 7.44e+01  -8.4 7.56e-02 1.00e+00H  1
 293 -2.5428265e-01 3.60e-01 5.64e+01  -6.0 1.54e+02  -8.9 1.00e+00 1.00e+00h  1
 294 -2.5449234e-01 1.03e+00 1.94e+01  -6.0 2.74e+02  -9.3 1.00e+00 1.00e+00h  1
 295 -2.5476129e-01 3.34e+00 2.91e+01  -6.0 4.08e+02  -9.8 5.89e-01 1.00e+00h  1
 296 -2.5501246e-01 3.34e+01 5.91e+01  -6.0 1.44e+03 -10.3 2.44e-01 1.00e+00h  1
 297 -2.5510341e-01 2.87e-01 1.20e+02  -6.0 1.00e+02  -9.0 1.05e-01 1.00e+00h  1
 298 -2.5519222e-01 3.92e+00 9.05e+00  -6.0 5.68e+02  -9.4 8.30e-01 1.00e+00h  1
 299 -2.5552566e-01 1.29e+01 2.84e+01  -6.0 8.43e+02  -9.9 1.37e-01 1.00e+00h  1
iter    objective    inf_pr   inf_du lg(mu)  ||d||  lg(rg) alpha_du alpha_pr  ls
 300 -2.5646665e-01 5.92e+01 8.53e+01  -6.0 2.45e+03 -10.4 1.17e-01 8.92e-01h  1
 301 -2.5678702e-01 8.79e+01 5.49e+01  -6.0 7.67e+03 -10.9 2.38e-01 3.42e-01h  1
 302 -2.5721081e-01 8.15e+01 8.96e+01  -6.0 1.04e+04    -  8.90e-03 2.10e-01h  1
 303 -2.5718717e-01 7.85e+01 8.08e+01  -6.0 5.58e+03    -  2.58e-02 5.01e-02h  1
 304 -2.5720462e-01 2.86e+01 8.88e+01  -6.0 1.39e+03    -  5.01e-02 1.00e+00h  1
 305 -2.5718787e-01 3.81e+00 4.65e+01  -6.0 5.33e+02  -9.5 1.15e-01 1.00e+00h  1
 306 -2.5716027e-01 2.56e-02 3.15e+01  -6.0 1.16e+01  -8.2 2.35e-01 1.00e+00h  1
 307 -2.5730705e-01 1.59e+01 1.61e+01  -6.0 2.78e+03    -  4.48e-01 3.88e-01h  1
 308 -2.5731153e-01 5.76e-02 6.00e-02  -6.0 2.64e+01  -8.7 1.00e+00 1.00e+00h  1
 309 -2.5733165e-01 2.28e-01 1.05e-02  -6.0 6.99e+01  -9.2 1.00e+00 1.00e+00h  1
iter    objective    inf_pr   inf_du lg(mu)  ||d||  lg(rg) alpha_du alpha_pr  ls
 310 -2.5744531e-01 8.85e+00 1.58e+01  -6.0 7.83e+02  -9.6 9.68e-02 1.00e+00h  1
 311 -2.5750464e-01 7.45e+00 1.33e+01  -6.0 2.47e+03    -  1.39e-01 1.67e-01h  1
 312 -2.5766731e-01 5.49e+01 2.82e+01  -6.0 1.73e+04    -  4.99e-02 1.09e-01h  1
 313 -2.5759584e-01 1.08e+01 1.58e+01  -6.0 8.71e+02    -  4.20e-01 1.00e+00h  1
 314 -2.5760659e-01 6.03e-01 5.11e-02  -6.0 1.15e+02  -9.2 1.00e+00 1.00e+00h  1
 315 -2.5768571e-01 6.94e+00 5.80e+00  -6.0 6.84e+02    -  6.19e-01 1.00e+00h  1
 316 -2.5770173e-01 2.16e+00 1.94e-01  -6.0 3.86e+02    -  1.00e+00 1.00e+00h  1
 317 -2.5769711e-01 2.17e-01 1.86e-03  -6.0 3.62e+01    -  1.00e+00 1.00e+00h  1
 318 -2.5769708e-01 3.44e-04 5.18e-06  -6.0 1.84e+00  -9.7 1.00e+00 1.00e+00h  1
 319 -2.5769715e-01 4.86e-04 5.64e-06  -6.0 2.13e+00  -9.3 1.00e+00 1.00e+00h  1
iter    objective    inf_pr   inf_du lg(mu)  ||d||  lg(rg) alpha_du alpha_pr  ls
 320 -2.5769765e-01 3.04e-02 2.83e-04  -6.0 1.51e+01  -9.7 1.00e+00 1.00e+00h  1
 321 -2.5769793e-01 1.45e-02 9.41e-05  -6.0 8.68e+00  -9.3 1.00e+00 1.00e+00h  1
 322 -2.5769882e-01 1.39e-01 1.40e-03  -6.0 8.80e+01  -9.8 1.00e+00 1.00e+00H  1
 323 -2.5769943e-01 1.46e-02 2.04e-04  -6.0 1.49e+01    -  1.00e+00 1.00e+00h  1
 324 -2.5769930e-01 1.50e-03 2.16e-05  -6.0 4.14e+00    -  1.00e+00 1.00e+00h  1
 325 -2.5769930e-01 2.78e-07 4.36e-09  -6.0 5.71e-02    -  1.00e+00 1.00e+00h  1
 326 -2.5802245e-01 9.72e-01 5.04e+00  -7.5 1.22e+03    -  1.99e-01 2.05e-01h  1
 327 -2.5805568e-01 9.65e-01 4.37e+01  -7.5 1.20e+03    -  2.30e-01 3.37e-02h  1
 328 -2.5830643e-01 3.73e+00 2.69e+01  -7.5 1.46e+03    -  2.79e-01 3.00e-01h  1
 329 -2.5840203e-01 3.32e+00 3.24e+01  -7.5 8.60e+02    -  2.51e-01 1.73e-01h  1
iter    objective    inf_pr   inf_du lg(mu)  ||d||  lg(rg) alpha_du alpha_pr  ls
 330 -2.5861686e-01 1.14e+01 3.08e+01  -7.5 1.34e+03    -  2.82e-01 6.27e-01h  1
 331 -2.5869073e-01 1.02e+01 1.68e+01  -7.5 1.82e+03    -  3.67e-01 1.04e-01h  1
 332 -2.5874568e-01 2.00e+00 2.88e+01  -7.5 2.46e+02    -  5.56e-01 8.83e-01h  1
 333 -2.5875930e-01 1.49e+00 1.75e+02  -7.5 3.08e+02    -  7.95e-01 2.60e-01h  1
 334 -2.5880305e-01 1.15e+00 1.13e+02  -7.5 3.26e+02    -  1.00e+00 7.57e-01h  1
 335 -2.5884123e-01 4.66e-01 2.22e+02  -7.5 1.64e+02    -  3.29e-01 5.94e-01h  1
 336 -2.5888280e-01 3.50e-01 1.89e+02  -7.5 1.87e+02    -  5.29e-01 5.63e-01h  1
 337 -2.5892135e-01 4.05e-01 2.15e+03  -7.5 2.39e+02    -  1.00e+00 4.77e-01h  1
 338 -2.5894518e-01 4.71e-01 1.56e+03  -7.5 3.75e+02    -  2.37e-01 2.58e-01h  1
 339 -2.5894545e-01 4.58e-01 1.56e+06  -7.5 8.35e+03    -  1.23e-04 2.77e-02h  2
iter    objective    inf_pr   inf_du lg(mu)  ||d||  lg(rg) alpha_du alpha_pr  ls
 340 -2.5895460e-01 2.23e-01 5.33e+03  -7.5 3.03e+02    -  2.26e-02 1.00e+00h  1
 341 -2.5893850e-01 1.95e-02 5.16e-02  -7.5 1.02e+02    -  1.00e+00 1.00e+00h  1
 342 -2.5893661e-01 3.78e-03 1.21e-04  -7.5 1.56e+01    -  1.00e+00 1.00e+00h  1
 343 -2.5893643e-01 6.98e-07 4.13e-08  -7.5 1.97e-01    -  1.00e+00 1.00e+00h  1
 344 -2.5893643e-01 2.66e-10 4.91e-13  -7.5 4.54e-05    -  1.00e+00 1.00e+00h  1
 345 -2.5893783e-01 5.68e-03 6.95e+00  -9.0 9.08e+01    -  9.66e-01 2.10e-01h  1
 346 -2.5893971e-01 6.53e-02 7.70e-01  -9.0 7.20e+01    -  1.00e+00 8.94e-01h  1
 347 -2.5893954e-01 6.18e-04 6.68e-04  -9.0 6.22e+00    -  1.00e+00 1.00e+00h  1
 348 -2.5893954e-01 3.47e-09 5.30e-09  -9.0 3.38e-02    -  1.00e+00 1.00e+00h  1

Number of Iterations....: 348

                                   (scaled)                 (unscaled)
Objective...............:  -2.5893953758462646e-01   -2.5893953758462646e-01
Dual infeasibility......:   5.3030381197416432e-09    5.3030381197416432e-09
Constraint violation....:   9.2161687836035341e-10    3.4701201911957469e-09
Complementarity.........:   1.0240346176027995e-09    1.0240346176027995e-09
Overall NLP error.......:   5.3030381197416432e-09    5.3030381197416432e-09


Number of objective function evaluations             = 519
Number of objective gradient evaluations             = 348
Number of equality constraint evaluations            = 521
Number of inequality constraint evaluations          = 520
Number of equality constraint Jacobian evaluations   = 352
Number of inequality constraint Jacobian evaluations = 352
Number of Lagrangian Hessian evaluations             = 348
Total CPU secs in IPOPT (w/o function evaluations)   =    843.647
Total CPU secs in NLP function evaluations           =     11.186

EXIT: Optimal Solution Found.
